
--- Job M-2Fft_E.gms Start 04/06/23 20:54:13 41.2.0 5110e5ff WEX-WEI x86 64bit/MS Windows
--- Applying:
    D:\GAMS\41\gmsprmNT.txt
--- GAMS Parameters defined
    Input "G:\Mi unidad\5. TFG\src\gams\M-2Fft_E.gms"
    PageSize 0
    ScrDir "G:\Mi unidad\5. TFG\src\gams\225a\"
    SysDir D:\GAMS\41\
    LogOption 3
    ErrMsg 1
    ErrorLog 99
    IDE 1
    LstTitleLeftAligned 1
Licensee: GAMS Demo license for Antonio Sevilla Sastre   G221121|0002CO-GEN
          UCM, Spain                                               DL079880
          C:\Users\Antonio\Documents\GAMS\gamslice.txt
          antsev01@ucm.es, Antonio Sevilla Sastre                          
          Demo license for demonstration and instructional purposes only
Processor information: 1 socket(s), 14 core(s), and 20 thread(s) available
GAMS 41.2.0   Copyright (C) 1987-2022 GAMS Development. All rights reserved
--- Starting compilation
--- M-2Fft_E.gms(223) 3 Mb
--- Starting execution: elapsed 0:00:00.026
--- M-2Fft_E.gms(125) 4 Mb
--- Generating MIP model modelo1
--- M-2Fft_E.gms(221) 4 Mb
---   362 rows  440 columns  1,649 non-zeroes
---   399 discrete-columns
--- Range statistics (absolute non-zero finite values)
--- RHS       [min, max] : [ 5.000E-04, 9.900E+01] - Zero values observed as well
--- Bound     [min, max] : [ 1.000E+00, 1.000E+00] - Zero values observed as well
--- Matrix    [min, max] : [ 1.000E-03, 9.900E+01]
--- Executing CPLEX (Solvelink=2): elapsed 0:00:00.173

IBM ILOG CPLEX   41.2.0 5110e5ff Nov 14, 2022          WEI x86 64bit/MS Window

--- *** This solver runs with a demo license. No commercial use.
--- GMO setup time: 0.00s
--- Space for names approximately 0.02 Mb
--- Use option 'names no' to turn use of names off
--- GMO memory 0.59 Mb (peak 0.60 Mb)
--- Dictionary memory 0.00 Mb
--- Cplex 22.1.0.0 link memory 0.01 Mb (peak 0.06 Mb)
--- Starting Cplex

Version identifier: 22.1.0.0 | 2022-03-09 | 1a383f8ce
CPXPARAM_Advance                                 0
CPXPARAM_Threads                                 1
CPXPARAM_MIP_Display                             4
CPXPARAM_MIP_Pool_Capacity                       0
CPXPARAM_MIP_Tolerances_AbsMIPGap                0
Generic callback                                 0x50
Found incumbent of value 49.000000 after 0.00 sec. (0.03 ticks)
Tried aggregator 2 times.
MIP Presolve eliminated 270 rows and 199 columns.
MIP Presolve modified 84 coefficients.
Aggregator did 3 substitutions.
Reduced MIP has 88 rows, 238 columns, and 725 nonzeros.
Reduced MIP has 31 binaries, 186 generals, 0 SOSs, and 0 indicators.
Presolve time = 0.00 sec. (0.85 ticks)
Probing time = 0.00 sec. (0.03 ticks)
Tried aggregator 1 time.
Detecting symmetries...
Reduced MIP has 88 rows, 238 columns, and 725 nonzeros.
Reduced MIP has 34 binaries, 197 generals, 0 SOSs, and 0 indicators.
Presolve time = 0.00 sec. (0.47 ticks)
Probing time = 0.00 sec. (0.03 ticks)
MIP emphasis: balance optimality and feasibility.
MIP search method: dynamic search.
Parallel mode: none, using 1 thread.
Tried aggregator 1 time.
No LP presolve or aggregator reductions.
Presolve time = 0.00 sec. (0.09 ticks)
Initializing dual steep norms . . .

Iteration log . . .
Iteration:     1   Dual objective     =             0.000000

Iteration log . . .
Iteration:     1   Dual objective     =            18.666667
Root relaxation solution time = 0.00 sec. (0.30 ticks)

        Nodes                                         Cuts/
   Node  Left     Objective  IInf  Best Integer    Best Bound    ItCnt     Gap

*     0+    0                           49.0000        0.0000           100.00%
Found incumbent of value 49.000000 after 0.02 sec. (1.97 ticks)
      0     0       18.6667    11       49.0000       18.6667       20   61.90%
      0     0       24.5745    15       49.0000       Cuts: 3       31   49.85%
*     0     0      integral     0       28.0000       Cuts: 6       37    0.00%
Found incumbent of value 28.000000 after 0.02 sec. (3.34 ticks)
      0     0        cutoff             28.0000       28.0000       37    0.00%
Elapsed time = 0.02 sec. (3.34 ticks, tree = 0.01 MB)

Implied bound cuts applied:  1
Lift and project cuts applied:  2
Gomory fractional cuts applied:  2

Root node processing (before b&c):
  Real time             =    0.02 sec. (3.35 ticks)
Sequential b&c:
  Real time             =    0.00 sec. (0.00 ticks)
                          ------------
Total (root+branch&cut) =    0.02 sec. (3.35 ticks)

--- MIP status (101): integer optimal solution.
--- Cplex Time: 0.02sec (det. 3.35 ticks)

--- Fixing integer variables and solving final LP...

Version identifier: 22.1.0.0 | 2022-03-09 | 1a383f8ce
CPXPARAM_Advance                                 2
CPXPARAM_Threads                                 1
CPXPARAM_MIP_Display                             4
CPXPARAM_MIP_Pool_Capacity                       0
CPXPARAM_MIP_Tolerances_AbsMIPGap                0
Tried aggregator 1 time.
LP Presolve eliminated 359 rows and 438 columns.
Aggregator did 2 substitutions.
All rows and columns eliminated.
Presolve time = 0.00 sec. (0.22 ticks)

--- Fixed MIP status (1): optimal.
--- Cplex Time: 0.00sec (det. 0.37 ticks)


Proven optimal solution
MIP Solution:           28.000000    (37 iterations, 0 nodes)
Final Solve:            28.000000    (0 iterations)

Best possible:          28.000000
Absolute gap:           -0.000000
Relative gap:           -0.000000

--- Reading solution for model modelo1
--- Executing after solve: elapsed 0:00:00.314
--- Generating MIP model modelo1
--- M-2Fft_E.gms(222) 4 Mb
---   362 rows  440 columns  1,649 non-zeroes
---   399 discrete-columns
--- Range statistics (absolute non-zero finite values)
--- RHS       [min, max] : [ 5.000E-04, 9.900E+01] - Zero values observed as well
--- Bound     [min, max] : [ 1.000E+00, 1.000E+00] - Zero values observed as well
--- Matrix    [min, max] : [ 1.000E-03, 9.900E+01]
--- Executing CPLEX (Solvelink=2): elapsed 0:00:00.486

IBM ILOG CPLEX   41.2.0 5110e5ff Nov 14, 2022          WEI x86 64bit/MS Window

--- *** This solver runs with a demo license. No commercial use.
--- GMO setup time: 0.00s
--- Space for names approximately 0.02 Mb
--- Use option 'names no' to turn use of names off
--- GMO memory 0.59 Mb (peak 0.60 Mb)
--- Dictionary memory 0.00 Mb
--- Cplex 22.1.0.0 link memory 0.01 Mb (peak 0.06 Mb)
--- Starting Cplex

Version identifier: 22.1.0.0 | 2022-03-09 | 1a383f8ce
CPXPARAM_Advance                                 0
CPXPARAM_Threads                                 1
CPXPARAM_MIP_Display                             4
CPXPARAM_MIP_Pool_Capacity                       0
CPXPARAM_MIP_Tolerances_AbsMIPGap                0
Generic callback                                 0x50
Found incumbent of value 0.000000 after 0.00 sec. (0.03 ticks)
Tried aggregator 2 times.
MIP Presolve eliminated 270 rows and 197 columns.
MIP Presolve modified 84 coefficients.
Aggregator did 3 substitutions.
Reduced MIP has 88 rows, 240 columns, and 725 nonzeros.
Reduced MIP has 34 binaries, 186 generals, 0 SOSs, and 0 indicators.
Presolve time = 0.00 sec. (0.85 ticks)
Probing time = 0.00 sec. (0.03 ticks)
Tried aggregator 1 time.
Detecting symmetries...
MIP Presolve modified 3 coefficients.
Reduced MIP has 88 rows, 240 columns, and 725 nonzeros.
Reduced MIP has 37 binaries, 196 generals, 0 SOSs, and 0 indicators.
Presolve time = 0.00 sec. (0.48 ticks)
Probing time = 0.00 sec. (0.03 ticks)
MIP emphasis: balance optimality and feasibility.
MIP search method: dynamic search.
Parallel mode: none, using 1 thread.
Tried aggregator 1 time.
No LP presolve or aggregator reductions.
Presolve time = 0.00 sec. (0.09 ticks)
Initializing dual steep norms . . .

Iteration log . . .
Iteration:     1   Dual objective     =             3.000000

Iteration log . . .
Iteration:     1   Dual objective     =             3.000000
Root relaxation solution time = 0.00 sec. (0.23 ticks)

        Nodes                                         Cuts/
   Node  Left     Objective  IInf  Best Integer    Best Bound    ItCnt     Gap

*     0+    0                            0.0000        3.0000              --- 
Found incumbent of value 0.000000 after 0.02 sec. (1.93 ticks)
      0     0        3.0000     6        0.0000        3.0000        9     --- 
*     0+    0                            3.0000        3.0000             0.00%
Found incumbent of value 3.000000 after 0.02 sec. (2.12 ticks)
      0     0        cutoff              3.0000        3.0000        9    0.00%
Elapsed time = 0.02 sec. (2.12 ticks, tree = 0.01 MB)

Root node processing (before b&c):
  Real time             =    0.02 sec. (2.13 ticks)
Sequential b&c:
  Real time             =    0.00 sec. (0.00 ticks)
                          ------------
Total (root+branch&cut) =    0.02 sec. (2.13 ticks)

--- MIP status (101): integer optimal solution.
--- Cplex Time: 0.02sec (det. 2.13 ticks)

--- Fixing integer variables and solving final LP...

Version identifier: 22.1.0.0 | 2022-03-09 | 1a383f8ce
CPXPARAM_Advance                                 2
CPXPARAM_Threads                                 1
CPXPARAM_MIP_Display                             4
CPXPARAM_MIP_Pool_Capacity                       0
CPXPARAM_MIP_Tolerances_AbsMIPGap                0
Tried aggregator 1 time.
LP Presolve eliminated 359 rows and 438 columns.
Aggregator did 2 substitutions.
All rows and columns eliminated.
Presolve time = 0.00 sec. (0.22 ticks)

--- Fixed MIP status (1): optimal.
--- Cplex Time: 0.00sec (det. 0.37 ticks)


Proven optimal solution
MIP Solution:            3.000000    (9 iterations, 0 nodes)
Final Solve:             3.000000    (0 iterations)

Best possible:           3.000000
Absolute gap:            0.000000
Relative gap:            0.000000

--- Reading solution for model modelo1
*** Status: Normal completion
--- Job M-2Fft_E.gms Stop 04/06/23 20:54:14 elapsed 0:00:00.672
